16
0 4 19
0 10 20
1 5 8
1 7 7
1 12 20
1 13 17
1 14 1
2 1 6
2 6 20
2 11 20
2 13 12
3 1 10
3 4 19
3 8 16
4 3 16
4 5 2
4 7 12
4 12 20
5 4 13
5 7 6
5 11 6
5 14 16
5 15 13
6 1 10
6 4 1
6 5 10
7 3 19
7 5 17
7 11 12
9 5 1
9 6 20
9 7 15
10 4 12
11 4 10
11 6 5
11 7 20
11 9 18
11 10 1
12 3 17
12 4 12
13 12 7
14 6 12
14 8 11
14 12 19
15 0 11
15 2 1
15 6 9
